cpu-bind=MASK - n2lcn0129, task  0  0 [742377]: mask |--------|--------||--------|-------B||BBB-----|--------||--------|--------||||--------|--------||--------|--------||--------|--------||--------|--------|  set
started at Fri Mar 17 12:18:50 CET 2023
Timecheck 10015677.847943425
Set parameter TokenServer to value "license3.uni-paderborn.de"
Warning: Gurobi version mismatch between Python 10.0.1 and C library 10.0.0
Timecheck 10015677.852581011
Timecheck 10015677.85279748
Timecheck 10015677.852829512
Timecheck 10015677.852850553


####################################################################################################
Solve scenario sce_3_26_1 with free vessel operation using the arc flow model
Vessels can omit ports, Demands can be rejected
####################################################################################################
Data preprocessing, load /upb/departments/pc2/groups/hpc-prf-winf4/dwetzel/SILSRP/inst_final/sce_3_26_1
and create additional sets and parameters
	|- Read vessel information, number of vessels:	5
	|- Read node information, number of nodes:		369
	|- Read arc information
		|- Number of sailing arcs:			1499
		|- Number of transshipment arcs:	497
	|- Read container information
		|- Number of demands:		605
		|- Number of empties (+/-):	152/140
	|- Create additional sets and parameters

Data preprocessing took 	00:00:00.283
####################################################################################################
Create linear model
Set parameter Threads to value 4
	|- Create variables, took	00:00:00.292
	|- Create objective, took	00:00:00.240
	|- Create constraints, took	00:00:01.072
	|- Load heuristic start

Creating model took	00:00:01.852
####################################################################################################
Fix start solution

Set parameter TimeLimit to value 8.4693907140310854e+04
Gurobi Optimizer version 10.0.0 build v10.0.0rc2 (linux64)

CPU model: AMD EPYC 7763 64-Core Processor, instruction set [SSE2|AVX|AVX2]
Thread count: 128 physical cores, 128 logical processors, using up to 4 threads

Optimize a model with 23257 rows, 80428 columns and 272895 nonzeros
Model fingerprint: 0x85d173d0
Variable types: 71965 continuous, 8463 integer (8463 binary)
Coefficient statistics:
  Matrix range     [1e+00, 3e+05]
  Objective range  [1e+00, 1e+00]
  Bounds range     [1e+00, 3e+02]
  RHS range        [1e+00, 3e+07]
Found heuristic solution: objective 3.889647e+07
Presolve removed 21854 rows and 77694 columns
Presolve time: 0.14s
Presolved: 1403 rows, 2734 columns, 8749 nonzeros
Found heuristic solution: objective 1.717229e+07
Variable types: 2343 continuous, 391 integer (388 binary)

Root relaxation: objective 1.226836e+07, 340 iterations, 0.00 seconds (0.00 work units)

    Nodes    |    Current Node    |     Objective Bounds      |     Work
 Expl Unexpl |  Obj  Depth IntInf | Incumbent    BestBd   Gap | It/Node Time

*    0     0               0    1.226836e+07 1.2268e+07  0.00%     -    0s

Explored 1 nodes (340 simplex iterations) in 0.16 seconds (0.15 work units)
Thread count was 4 (of 128 available processors)

Solution count 3: 1.22684e+07 1.71723e+07 3.88965e+07 

Optimal solution found (tolerance 1.00e-04)
Best objective 1.226835800000e+07, best bound 1.226835800000e+07, gap 0.0000%

Fixing start solution took	00:00:02.060
####################################################################################################
####################################################################################################
Solve optimization model

Set parameter TimeLimit to value 8.4693726321008056e+04
Gurobi Optimizer version 10.0.0 build v10.0.0rc2 (linux64)

CPU model: AMD EPYC 7763 64-Core Processor, instruction set [SSE2|AVX|AVX2]
Thread count: 128 physical cores, 128 logical processors, using up to 4 threads

Optimize a model with 23014 rows, 80428 columns and 272652 nonzeros
Model fingerprint: 0x7cca8112
Variable types: 71965 continuous, 8463 integer (8463 binary)
Coefficient statistics:
  Matrix range     [1e+00, 3e+05]
  Objective range  [1e+00, 1e+00]
  Bounds range     [1e+00, 3e+02]
  RHS range        [1e+00, 3e+07]

MIP start from previous solve produced solution with objective 1.22684e+07 (0.11s)
Loaded MIP start from previous solve with objective 1.22684e+07

Presolve removed 2900 rows and 2560 columns
Presolve time: 0.44s
Presolved: 20114 rows, 77868 columns, 230670 nonzeros
Variable types: 70024 continuous, 7844 integer (7844 binary)
Deterministic concurrent LP optimizer: primal and dual simplex
Showing first log only...


Root simplex log...

Iteration    Objective       Primal Inf.    Dual Inf.      Time
   47679    1.1231312e+07   0.000000e+00   2.112308e+08      5s
   75375    9.3289567e+06   0.000000e+00   9.173521e+08     10s
   98777    8.6288095e+06   0.000000e+00   5.621857e+07     15s
  119763    8.2997837e+06   0.000000e+00   4.639237e+07     20s
  140747    8.0270487e+06   0.000000e+00   2.031365e+08     25s
  160871    7.8702567e+06   0.000000e+00   1.161553e+07     30s
  181167    7.7420823e+06   0.000000e+00   8.119773e+06     35s
  198728    7.6552761e+06   0.000000e+00   1.788508e+08     40s
  208532    7.5993509e+06   0.000000e+00   6.969710e+06     45s
Concurrent spin time: 0.00s

Solved with dual simplex

Root simplex log...

Iteration    Objective       Primal Inf.    Dual Inf.      Time
  105677    7.5015521e+06   0.000000e+00   0.000000e+00     45s

Root relaxation: objective 7.501552e+06, 105677 iterations, 44.72 seconds (37.62 work units)

    Nodes    |    Current Node    |     Objective Bounds      |     Work
 Expl Unexpl |  Obj  Depth IntInf | Incumbent    BestBd   Gap | It/Node Time

     0     0 7501552.10    0 1441 1.2268e+07 7501552.10  38.9%     -   46s
     0     0 8046019.92    0 1656 1.2268e+07 8046019.92  34.4%     -  154s
     0     0 8214983.19    0 1680 1.2268e+07 8214983.19  33.0%     -  232s
     0     0 8237338.28    0 1714 1.2268e+07 8237338.28  32.9%     -  275s
     0     0 8237338.28    0 1719 1.2268e+07 8237338.28  32.9%     -  275s
     0     0 8242426.78    0 1723 1.2268e+07 8242426.78  32.8%     -  291s
     0     0 8244097.84    0 1723 1.2268e+07 8244097.84  32.8%     -  299s
     0     0 8244390.61    0 1741 1.2268e+07 8244390.61  32.8%     -  303s
     0     0 8244481.93    0 1730 1.2268e+07 8244481.93  32.8%     -  306s
     0     0 8244483.50    0 1735 1.2268e+07 8244483.50  32.8%     -  307s
     0     0 8737267.67    0 1758 1.2268e+07 8737267.67  28.8%     -  504s
     0     0 9130593.21    0 1792 1.2268e+07 9130593.21  25.6%     -  749s
     0     0 9221191.32    0 1816 1.2268e+07 9221191.32  24.8%     -  898s
     0     0 9254129.36    0 1835 1.2268e+07 9254129.36  24.6%     -  993s
     0     0 9254129.36    0 1821 1.2268e+07 9254129.36  24.6%     - 1004s
     0     0 9265914.78    0 1830 1.2268e+07 9265914.78  24.5%     - 1080s
     0     0 9268947.39    0 1842 1.2268e+07 9268947.39  24.4%     - 1120s
     0     0 9268947.39    0 1819 1.2268e+07 9268947.39  24.4%     - 1145s
     0     0 9269603.20    0 1835 1.2268e+07 9269603.20  24.4%     - 1162s
     0     0 9269603.20    0 1835 1.2268e+07 9269603.20  24.4%     - 1162s
     0     0 9269786.00    0 1832 1.2268e+07 9269786.00  24.4%     - 1172s
     0     0 9269786.00    0 1806 1.2268e+07 9269786.00  24.4%     - 1195s
     0     0 9597645.02    0 1842 1.2268e+07 9597645.02  21.8%     - 1552s
H    0     0                    1.226541e+07 9742309.94  20.6%     - 1799s
     0     0 9742309.94    0 1884 1.2265e+07 9742309.94  20.6%     - 1826s
     0     0 9796679.53    0 1923 1.2265e+07 9796679.53  20.1%     - 2014s
     0     0 9796679.53    0 1908 1.2265e+07 9796679.53  20.1%     - 2042s
     0     0 9814725.72    0 1969 1.2265e+07 9814725.72  20.0%     - 2184s
     0     0 9824097.01    0 1956 1.2265e+07 9824097.01  19.9%     - 2294s
     0     0 9827676.56    0 1978 1.2265e+07 9827676.56  19.9%     - 2347s
     0     0 9827676.56    0 2001 1.2265e+07 9827676.56  19.9%     - 2350s
     0     0 9828975.17    0 1996 1.2265e+07 9828975.17  19.9%     - 2380s
     0     0 9828975.17    0 1996 1.2265e+07 9828975.17  19.9%     - 2384s
     0     0 9829236.32    0 2036 1.2265e+07 9829236.32  19.9%     - 2401s
     0     0 9955342.66    0 1925 1.2265e+07 9955342.66  18.8%     - 2670s
     0     0 9955342.66    0 1883 1.2265e+07 9955342.66  18.8%     - 2690s
     0     0 1.0012e+07    0 1931 1.2265e+07 1.0012e+07  18.4%     - 3101s
     0     0 1.0033e+07    0 1946 1.2265e+07 1.0033e+07  18.2%     - 3264s
     0     0 1.0040e+07    0 1985 1.2265e+07 1.0040e+07  18.1%     - 3353s
     0     0 1.0043e+07    0 1978 1.2265e+07 1.0043e+07  18.1%     - 3408s
     0     0 1.0043e+07    0 1957 1.2265e+07 1.0043e+07  18.1%     - 3441s
     0     0 1.0044e+07    0 1985 1.2265e+07 1.0044e+07  18.1%     - 3512s
     0     0 1.0044e+07    0 1976 1.2265e+07 1.0044e+07  18.1%     - 3530s
     0     0 1.0045e+07    0 2000 1.2265e+07 1.0045e+07  18.1%     - 3622s
     0     0 1.0045e+07    0 1982 1.2265e+07 1.0045e+07  18.1%     - 3638s
     0     0 1.0109e+07    0 1930 1.2265e+07 1.0109e+07  17.6%     - 4229s
     0     0 1.0138e+07    0 1916 1.2265e+07 1.0138e+07  17.3%     - 4578s
     0     0 1.0138e+07    0 1917 1.2265e+07 1.0138e+07  17.3%     - 4603s
     0     0 1.0148e+07    0 1928 1.2265e+07 1.0148e+07  17.3%     - 4965s
     0     0 1.0148e+07    0 1958 1.2265e+07 1.0148e+07  17.3%     - 5001s
     0     0 1.0152e+07    0 1968 1.2265e+07 1.0152e+07  17.2%     - 5176s
     0     0 1.0152e+07    0 1974 1.2265e+07 1.0152e+07  17.2%     - 5195s
     0     0 1.0154e+07    0 1974 1.2265e+07 1.0154e+07  17.2%     - 5343s
     0     0 1.0156e+07    0 1957 1.2265e+07 1.0156e+07  17.2%     - 5412s
     0     0 1.0156e+07    0 1976 1.2265e+07 1.0156e+07  17.2%     - 5415s
     0     0 1.0156e+07    0 1953 1.2265e+07 1.0156e+07  17.2%     - 5551s
     0     0 1.0156e+07    0 1987 1.2265e+07 1.0156e+07  17.2%     - 5574s
H    0     0                    1.225474e+07 1.0184e+07  16.9%     - 5793s
     0     0 1.0184e+07    0 1955 1.2255e+07 1.0184e+07  16.9%     - 6032s
     0     0 1.0184e+07    0 1965 1.2255e+07 1.0184e+07  16.9%     - 6052s
H    0     0                    1.225166e+07 1.0199e+07  16.8%     - 6268s
     0     0 1.0199e+07    0 1892 1.2252e+07 1.0199e+07  16.8%     - 6475s
     0     0 1.0199e+07    0 1908 1.2252e+07 1.0199e+07  16.8%     - 6475s
     0     0 1.0205e+07    0 1886 1.2252e+07 1.0205e+07  16.7%     - 6696s
     0     0 1.0205e+07    0 1894 1.2252e+07 1.0205e+07  16.7%     - 6697s
     0     0 1.0208e+07    0 1910 1.2252e+07 1.0208e+07  16.7%     - 6828s
     0     0 1.0208e+07    0 1901 1.2252e+07 1.0208e+07  16.7%     - 6872s
     0     0 1.0210e+07    0 1878 1.2252e+07 1.0210e+07  16.7%     - 6995s
     0     0 1.0211e+07    0 1930 1.2252e+07 1.0211e+07  16.7%     - 7046s
     0     0 1.0226e+07    0 1927 1.2252e+07 1.0226e+07  16.5%     - 7345s
     0     0 1.0226e+07    0 1940 1.2252e+07 1.0226e+07  16.5%     - 7360s
     0     0 1.0231e+07    0 1960 1.2252e+07 1.0231e+07  16.5%     - 7511s
     0     0 1.0233e+07    0 1955 1.2252e+07 1.0233e+07  16.5%     - 7636s
     0     0 1.0233e+07    0 1959 1.2252e+07 1.0233e+07  16.5%     - 7637s
     0     0 1.0234e+07    0 1977 1.2252e+07 1.0234e+07  16.5%     - 7729s
     0     0 1.0234e+07    0 1973 1.2252e+07 1.0234e+07  16.5%     - 7730s
     0     0 1.0235e+07    0 1989 1.2252e+07 1.0235e+07  16.5%     - 7776s
     0     0 1.0235e+07    0 1939 1.2252e+07 1.0235e+07  16.5%     - 7809s
     0     0 1.0246e+07    0 1929 1.2252e+07 1.0246e+07  16.4%     - 8036s
     0     0 1.0246e+07    0 1900 1.2252e+07 1.0246e+07  16.4%     - 8112s
     0     0 1.0249e+07    0 1943 1.2252e+07 1.0249e+07  16.3%     - 8211s
     0     0 1.0249e+07    0 1924 1.2252e+07 1.0249e+07  16.3%     - 8211s
     0     0 1.0250e+07    0 1925 1.2252e+07 1.0250e+07  16.3%     - 8281s
     0     0 1.0250e+07    0 1891 1.2252e+07 1.0250e+07  16.3%     - 8329s
     0     0 1.0254e+07    0 1960 1.2252e+07 1.0254e+07  16.3%     - 8489s
     0     0 1.0257e+07    0 1952 1.2252e+07 1.0257e+07  16.3%     - 8582s
     0     0 1.0258e+07    0 1931 1.2252e+07 1.0258e+07  16.3%     - 8638s
     0     0 1.0258e+07    0 1918 1.2252e+07 1.0258e+07  16.3%     - 8670s
     0     0 1.0265e+07    0 1913 1.2252e+07 1.0265e+07  16.2%     - 8807s
     0     0 1.0265e+07    0 1921 1.2252e+07 1.0265e+07  16.2%     - 8808s
     0     0 1.0265e+07    0 1900 1.2252e+07 1.0265e+07  16.2%     - 8812s
     0     2 1.0265e+07    0 1892 1.2252e+07 1.0265e+07  16.2%     - 9253s
     1     4 1.0282e+07    1 1937 1.2252e+07 1.0265e+07  16.2% 65446 9508s
     3     8 1.0314e+07    2 1959 1.2252e+07 1.0267e+07  16.2% 49360 9940s
     7    12 1.0345e+07    3 1957 1.2252e+07 1.0274e+07  16.1% 66402 10278s
    11    16 1.0349e+07    3 1934 1.2252e+07 1.0274e+07  16.1% 71945 10585s
    15    20 1.0349e+07    4 1944 1.2252e+07 1.0282e+07  16.1% 70754 10622s
    19    24 1.0369e+07    5 1939 1.2252e+07 1.0282e+07  16.1% 64071 10679s
    23    28 1.0370e+07    5 1891 1.2252e+07 1.0286e+07  16.0% 58958 10732s
    27    35 1.0372e+07    6 1895 1.2252e+07 1.0286e+07  16.0% 55500 10769s
    31    35 1.0296e+07    5 1919 1.2252e+07 1.0296e+07  16.0% 49846 10770s
    34    43 1.0380e+07    7 1836 1.2252e+07 1.0296e+07  16.0% 46258 10958s
    42    47 1.0399e+07    8 1833 1.2252e+07 1.0296e+07  16.0% 41251 11123s
    46    53 1.0399e+07    9 1811 1.2252e+07 1.0296e+07  16.0% 39551 11382s
    52    62 1.0417e+07   11 1819 1.2252e+07 1.0296e+07  16.0% 36138 11433s
    61    71 1.0420e+07   13 1812 1.2252e+07 1.0296e+07  16.0% 32092 11504s
    70    76 1.0422e+07   15 1806 1.2252e+07 1.0296e+07  16.0% 29546 11721s
    75    88 1.0426e+07   17 1791 1.2252e+07 1.0296e+07  16.0% 29800 11794s
    87    95 1.0482e+07   20 1778 1.2252e+07 1.0296e+07  16.0% 27060 11846s
    94   102 1.0459e+07   21 1818 1.2252e+07 1.0296e+07  16.0% 25911 11930s
   101   107 1.0467e+07   22 1772 1.2252e+07 1.0296e+07  16.0% 25561 12869s
   106   116 1.0483e+07   22 1744 1.2252e+07 1.0296e+07  16.0% 27362 12941s
   115   133 1.0467e+07   23 1768 1.2252e+07 1.0296e+07  16.0% 25982 13002s
   132   144 1.0471e+07   29 1774 1.2252e+07 1.0296e+07  16.0% 23403 13085s
   143   158 1.0477e+07   31 1810 1.2252e+07 1.0296e+07  16.0% 22181 13174s
   157   175 1.0551e+07   33 1797 1.2252e+07 1.0296e+07  16.0% 21076 13234s
   174   190 1.0523e+07   36 1786 1.2252e+07 1.0296e+07  16.0% 19620 13309s
   189   206 1.0529e+07   41 1795 1.2252e+07 1.0296e+07  16.0% 18707 13423s
   205   221 1.0632e+07   45 1767 1.2252e+07 1.0296e+07  16.0% 17995 15038s
   220   236 1.0542e+07   46 1774 1.2252e+07 1.0296e+07  16.0% 19104 15181s
   235   258 1.0543e+07   47 1760 1.2252e+07 1.0296e+07  16.0% 18630 15293s
   257   275 1.0554e+07   54 1783 1.2252e+07 1.0296e+07  16.0% 17710 15413s
   274   289 1.0561e+07   57 1754 1.2252e+07 1.0296e+07  16.0% 17265 15506s
   288   295 1.0569e+07   59 1772 1.2252e+07 1.0296e+07  16.0% 17008 15675s
   294   315 1.0578e+07   61 1759 1.2252e+07 1.0296e+07  16.0% 16943 15785s
   314   330 1.0729e+07   66 1742 1.2252e+07 1.0296e+07  16.0% 16479 16022s
   329   348 1.0606e+07   69 1727 1.2252e+07 1.0296e+07  16.0% 16349 16292s
   347   358 1.0700e+07   70 1746 1.2252e+07 1.0296e+07  16.0% 16346 16654s
   357   383 1.0691e+07   71 1654 1.2252e+07 1.0296e+07  16.0% 16442 16920s
   382   410 1.0655e+07   72 1712 1.2252e+07 1.0296e+07  16.0% 15881 17275s
   409   444 1.0664e+07   79 1700 1.2252e+07 1.0296e+07  16.0% 15436 17627s
   443   482 1.0673e+07   89 1670 1.2252e+07 1.0296e+07  16.0% 14870 17945s
   481   509 1.0716e+07   98 1690 1.2252e+07 1.0296e+07  16.0% 14291 18208s
   508   550 1.0706e+07  101 1688 1.2252e+07 1.0296e+07  16.0% 14009 18514s
   549   588 1.0716e+07  111 1656 1.2252e+07 1.0296e+07  16.0% 13431 18849s
   587   624 1.0731e+07  126 1660 1.2252e+07 1.0296e+07  16.0% 13050 19126s
   623   652 1.0751e+07  133 1651 1.2252e+07 1.0296e+07  16.0% 12758 19454s
   651   682 1.0779e+07  140 1650 1.2252e+07 1.0296e+07  16.0% 12700 19791s
   681   723 1.0785e+07  145 1620 1.2252e+07 1.0296e+07  16.0% 12587 20202s
   722   767 1.0798e+07  156 1652 1.2252e+07 1.0296e+07  16.0% 12371 20619s
   766   802 1.0810e+07  170 1640 1.2252e+07 1.0296e+07  16.0% 12118 20995s
   801   832 1.0822e+07  178 1651 1.2252e+07 1.0296e+07  16.0% 12010 21379s
   831   886 1.0842e+07  187 1663 1.2252e+07 1.0296e+07  16.0% 11889 21780s
   885   926 1.0859e+07  198 1608 1.2252e+07 1.0296e+07  16.0% 11592 22269s
   925   974 1.0880e+07  209 1598 1.2252e+07 1.0296e+07  16.0% 11535 22888s
   973  1032 1.0911e+07  216 1573 1.2252e+07 1.0296e+07  16.0% 11395 23339s
  1031  1104 1.0923e+07  230 1539 1.2252e+07 1.0296e+07  16.0% 11202 23824s
  1103  1160 1.0942e+07  240 1562 1.2252e+07 1.0296e+07  16.0% 10908 24297s
  1159  1228 1.0987e+07  251 1547 1.2252e+07 1.0296e+07  16.0% 10801 24806s
  1227  1290 1.1033e+07  258 1494 1.2252e+07 1.0296e+07  16.0% 10618 25408s
  1289  1371 1.1201e+07  269 1455 1.2252e+07 1.0296e+07  16.0% 10427 25997s
  1370  1462 1.1131e+07  286 1427 1.2252e+07 1.0296e+07  16.0% 10261 26550s
  1461  1550 1.1308e+07  300 1387 1.2252e+07 1.0296e+07  16.0% 10032 27120s
  1549  1651 1.1371e+07  310 1326 1.2252e+07 1.0296e+07  16.0%  9849 27718s
  1650  1842 1.1457e+07  339 1354 1.2252e+07 1.0296e+07  16.0%  9584 28295s
  1841  2027 1.1594e+07  395 1295 1.2252e+07 1.0296e+07  16.0%  8903 28864s
  2028  2261 1.1696e+07  434 1159 1.2252e+07 1.0296e+07  16.0%  8401 29342s
  2265  2461 1.1926e+07  496 1103 1.2252e+07 1.0296e+07  16.0%  7757 30004s
  2479  2641 1.0333e+07   15 1866 1.2252e+07 1.0296e+07  16.0%  7377 30562s
  2673  2648 1.0362e+07   21 1851 1.2252e+07 1.0296e+07  16.0%  7311 31551s
  2682  2830 1.0381e+07   19 1877 1.2252e+07 1.0296e+07  16.0%  7455 32207s
  2880  2871 1.0391e+07   37 1845 1.2252e+07 1.0296e+07  16.0%  7259 32997s
  2929  2929 1.0437e+07   56 1844 1.2252e+07 1.0296e+07  16.0%  7481 33621s
  2988  2930 1.0581e+07  133 1900 1.2252e+07 1.0296e+07  16.0%  7656 36100s
  2990  2931 1.1724e+07  431 1418 1.2252e+07 1.0296e+07  16.0%  7651 36203s
  2991  2932 1.0334e+07   13 1716 1.2252e+07 1.0296e+07  16.0%  7648 36389s
  2992  2933 1.0466e+07   32 1755 1.2252e+07 1.0296e+07  16.0%  7646 36651s
  2993  2933 1.1731e+07  437 1797 1.2252e+07 1.0296e+07  16.0%  7643 36964s
  2994  2934 1.1592e+07  496 1807 1.2252e+07 1.0296e+07  16.0%  7640 37252s
  2995  2935 1.1728e+07  448 1796 1.2252e+07 1.0296e+07  16.0%  7638 37609s
  2996  2935 1.1018e+07  317 1875 1.2252e+07 1.0296e+07  16.0%  7635 37864s
  2997  2936 1.2063e+07  577 1917 1.2252e+07 1.0296e+07  16.0%  7633 38110s
  2998  2937 1.0652e+07  107 1951 1.2252e+07 1.0296e+07  16.0%  7630 38328s
  2999  2937 1.1332e+07  292 1938 1.2252e+07 1.0296e+07  16.0%  7628 38549s
  3000  2938 1.0715e+07  214 1921 1.2252e+07 1.0296e+07  16.0%  7625 38790s
  3001  2939 1.1741e+07  434 1883 1.2252e+07 1.0296e+07  16.0%  7623 38974s
  3002  2939 1.1308e+07  301 1937 1.2252e+07 1.0296e+07  16.0%  7620 39187s
  3003  2940 1.0439e+07   34 1951 1.2252e+07 1.0296e+07  16.0%  7618 39380s
  3004  2941 1.0589e+07   55 2002 1.2252e+07 1.0296e+07  16.0%  7615 39494s
  3005  2941 1.1372e+07  315 1969 1.2252e+07 1.0296e+07  16.0%  7613 39594s
  3006  2942 1.0328e+07   12 1938 1.2252e+07 1.0296e+07  16.0%  7610 39698s
  3007  2943 1.0726e+07  159 1991 1.2252e+07 1.0296e+07  16.0%  7607 39757s
  3008  2943 1.1391e+07  330 2022 1.2252e+07 1.0296e+07  16.0%  7605 39808s
  3009  2944 1.0477e+07   31 1985 1.2252e+07 1.0296e+07  16.0%  7602 39841s
  3010  2945 1.0979e+07  249 1947 1.2252e+07 1.0296e+07  16.0%  7600 39912s
  3011  2945 1.0590e+07  140 1961 1.2252e+07 1.0296e+07  16.0%  7597 39975s
  3012  2946 1.1877e+07  815 1917 1.2252e+07 1.0318e+07  15.8%  7595 40291s
  3013  2947 1.0574e+07  130 1922 1.2252e+07 1.0338e+07  15.6%  7592 40657s
  3014  2947 1.1171e+07  340 1902 1.2252e+07 1.0345e+07  15.6%  7590 40819s
  3015  2948 1.0508e+07   72 1951 1.2252e+07 1.0347e+07  15.5%  7587 40925s
  3016  2949 1.0528e+07   49 1956 1.2252e+07 1.0348e+07  15.5%  7585 40963s
  3017  2949 1.1147e+07  226 1949 1.2252e+07 1.0348e+07  15.5%  7582 41000s
  3018  2950 1.0941e+07  169 1957 1.2252e+07 1.0349e+07  15.5%  7580 41036s
  3019  2951 1.1321e+07  313 1952 1.2252e+07 1.0349e+07  15.5%  7577 41059s
  3020  2951 1.1781e+07  732 1954 1.2252e+07 1.0349e+07  15.5%  7575 41154s
  3021  2952 1.2059e+07  450 1870 1.2252e+07 1.0365e+07  15.4%  7572 41540s
  3022  2953 1.1040e+07  209 1830 1.2252e+07 1.0371e+07  15.4%  7570 41785s
  3023  2953 1.0687e+07  190 1815 1.2252e+07 1.0373e+07  15.3%  7567 41904s
  3024  2954 1.1988e+07  536 1858 1.2252e+07 1.0373e+07  15.3%  7565 41936s
  3025  2955 1.1486e+07  367 1857 1.2252e+07 1.0374e+07  15.3%  7562 41979s
  3026  2955 1.1371e+07  315 1839 1.2252e+07 1.0374e+07  15.3%  7560 42014s
  3027  2956 1.1594e+07  478 1864 1.2252e+07 1.0374e+07  15.3%  7557 42040s
  3028  2957 1.0940e+07  156 1851 1.2252e+07 1.0380e+07  15.3%  7555 42180s
  3029  2957 1.1040e+07  209 1860 1.2252e+07 1.0385e+07  15.2%  7552 42321s
  3030  2958 1.0909e+07  286 1883 1.2252e+07 1.0387e+07  15.2%  7550 42387s
  3031  2959 1.1877e+07  804 1832 1.2252e+07 1.0387e+07  15.2%  7547 42452s
  3032  2959 1.1631e+07  568 1847 1.2252e+07 1.0388e+07  15.2%  7545 42469s
  3033  2960 1.0569e+07   59 1839 1.2252e+07 1.0388e+07  15.2%  7542 42492s
  3034  2961 1.0622e+07   93 1838 1.2252e+07 1.0392e+07  15.2%  7540 42614s
  3035  2961 1.1616e+07  387 1887 1.2252e+07 1.0393e+07  15.2%  7537 42684s
  3036  2962 1.1923e+07  764 1873 1.2252e+07 1.0394e+07  15.2%  7535 42761s
  3037  2963 1.0625e+07  161 1833 1.2252e+07 1.0395e+07  15.2%  7532 42795s
  3038  2963 1.1585e+07  277 1819 1.2252e+07 1.0395e+07  15.2%  7530 42880s
  3039  2964 1.1241e+07  255 1847 1.2252e+07 1.0399e+07  15.1%  7527 43047s
  3040  2965 1.0543e+07  113 1845 1.2252e+07 1.0401e+07  15.1%  7525 43172s
  3041  2965 1.0593e+07   76 1804 1.2252e+07 1.0401e+07  15.1%  7522 43209s
  3042  2966 1.1813e+07  347 1834 1.2252e+07 1.0401e+07  15.1%  7520 43227s
  3043  2967 1.1549e+07  393 1839 1.2252e+07 1.0401e+07  15.1%  7517 43246s
  3044  2967 1.1877e+07  806 1860 1.2252e+07 1.0405e+07  15.1%  7515 43380s
  3045  2968 1.0868e+07  201 1812 1.2252e+07 1.0405e+07  15.1%  7513 43425s
  3046  2969 1.1634e+07  539 1847 1.2252e+07 1.0406e+07  15.1%  7510 43445s
  3047  2969 1.1355e+07  409 1819 1.2252e+07 1.0406e+07  15.1%  7508 43468s
  3048  2970 1.1627e+07  556 1825 1.2252e+07 1.0407e+07  15.1%  7505 43545s
  3049  2971 1.0838e+07  184 1777 1.2252e+07 1.0407e+07  15.1%  7503 43592s
  3050  2971 1.1663e+07  660 1777 1.2252e+07 1.0407e+07  15.1%  7500 43615s
  3051  2972 1.0408e+07   33 1764 1.2252e+07 1.0408e+07  15.1%  7498 43633s
  3052  2973 1.0933e+07  167 1798 1.2252e+07 1.0408e+07  15.0%  7495 43685s
  3053  2973 1.0716e+07  110 1783 1.2252e+07 1.0411e+07  15.0%  7493 43753s
  3054  2974 1.0678e+07  181 1763 1.2252e+07 1.0411e+07  15.0%  7490 43788s
  3055  2975 1.1844e+07  379 1788 1.2252e+07 1.0411e+07  15.0%  7488 43804s
  3056  2975 1.1788e+07  350 1762 1.2252e+07 1.0412e+07  15.0%  7485 43896s
  3057  2976 1.1509e+07  354 1836 1.2252e+07 1.0413e+07  15.0%  7483 43928s
  3058  2977 1.0480e+07   40 1824 1.2252e+07 1.0413e+07  15.0%  7481 43950s
  3059  2977 1.1399e+07  319 1816 1.2252e+07 1.0413e+07  15.0%  7478 43968s
  3060  2978 1.0787e+07  240 1818 1.2252e+07 1.0413e+07  15.0%  7476 43991s
  3061  2979 1.1438e+07  332 1802 1.2252e+07 1.0414e+07  15.0%  7473 44029s
  3062  2979 1.1194e+07  277 1813 1.2252e+07 1.0414e+07  15.0%  7471 44052s
  3063  2980 1.0748e+07  225 1804 1.2252e+07 1.0414e+07  15.0%  7468 44069s
  3064  2981 1.1445e+07  338 1785 1.2252e+07 1.0415e+07  15.0%  7466 44113s
  3065  2981 1.0415e+07   37 1786 1.2252e+07 1.0415e+07  15.0%  7464 44136s
  3066  2982 1.0910e+07  154 1777 1.2252e+07 1.0415e+07  15.0%  7461 44167s
  3067  2983 1.0503e+07   26 1780 1.2252e+07 1.0415e+07  15.0%  7459 44180s
  3068  2983 1.0672e+07   87 1807 1.2252e+07 1.0416e+07  15.0%  7456 44244s
  3069  2984 1.1562e+07  349 1803 1.2252e+07 1.0416e+07  15.0%  7454 44319s
  3070  2985 1.2200e+07  608 1803 1.2252e+07 1.0416e+07  15.0%  7451 44759s
  3071  2988 1.0429e+07   12 1774 1.2252e+07 1.0416e+07  15.0%  8264 45494s
  3073  2992 1.0458e+07   13 1774 1.2252e+07 1.0422e+07  14.9%  8293 45974s
  3077  2994 1.0464e+07   14 1778 1.2252e+07 1.0426e+07  14.9%  8332 46121s
  3081  2997 1.0482e+07   14 1736 1.2252e+07 1.0426e+07  14.9%  8363 46363s
  3085  3000 1.0464e+07   15 1770 1.2252e+07 1.0427e+07  14.9%  8411 46398s
  3089  3002 1.0495e+07   15 1719 1.2252e+07 1.0427e+07  14.9%  8449 46966s
  3093  3006 1.0464e+07   16 1765 1.2252e+07 1.0428e+07  14.9%  8485 47122s
  3098  3008 1.0482e+07   16 1754 1.2252e+07 1.0428e+07  14.9%  8522 47440s
  3102  3011 1.0465e+07   17 1783 1.2252e+07 1.0428e+07  14.9%  8573 47942s
  3106  3016 1.0496e+07   17 1807 1.2252e+07 1.0432e+07  14.9%  8642 48335s
  3112  3019 1.0469e+07   18 1780 1.2252e+07 1.0432e+07  14.9%  8686 48809s
  3117  3022 1.0494e+07   18 1789 1.2252e+07 1.0432e+07  14.9%  8749 49130s
  3122  3026 1.0473e+07   19 1808 1.2252e+07 1.0432e+07  14.9%  8807 49539s
  3128  3030 1.0511e+07   19 1774 1.2252e+07 1.0432e+07  14.9%  8838 49692s
  3134  3034 1.0480e+07   20 1717 1.2252e+07 1.0432e+07  14.9%  8863 50128s
  3140  3036 1.0486e+07   20 1804 1.2252e+07 1.0432e+07  14.9%  8931 50900s
  3144  3045 1.0489e+07   21 1737 1.2252e+07 1.0432e+07  14.9%  9022 51632s
  3154  3051 1.0490e+07   22 1777 1.2252e+07 1.0432e+07  14.9%  9070 52130s
  3163  3061 1.0491e+07   23 1786 1.2252e+07 1.0432e+07  14.9%  9127 52490s
  3176  3063 1.0491e+07   24 1769 1.2252e+07 1.0432e+07  14.9%  9175 53045s
  3183  3066 1.0578e+07   24 1710 1.2252e+07 1.0432e+07  14.9%  9245 53458s
  3188  3072 1.0493e+07   25 1757 1.2252e+07 1.0432e+07  14.9%  9288 53927s
  3196  3077 1.0494e+07   26 1789 1.2252e+07 1.0432e+07  14.9%  9376 54709s
  3203  3083 1.0496e+07   27 1763 1.2252e+07 1.0432e+07  14.9%  9433 55560s
  3212  3087 1.0532e+07   28 1698 1.2252e+07 1.0432e+07  14.9%  9577 56192s
  3219  3094 1.0497e+07   28 1742 1.2252e+07 1.0432e+07  14.9%  9639 56872s
  3228  3099 1.0499e+07   30 1779 1.2252e+07 1.0432e+07  14.9%  9770 57708s
  3236  3111 1.0502e+07   31 1774 1.2252e+07 1.0432e+07  14.9%  9926 58209s
  3251  3124 1.0526e+07   33 1752 1.2252e+07 1.0432e+07  14.9%  9994 58723s
  3269  3134 1.0514e+07   36 1731 1.2252e+07 1.0432e+07  14.9% 10063 59501s
  3285  3147 1.0518e+07   38 1729 1.2252e+07 1.0432e+07  14.9% 10128 60080s
  3303  3160 1.0518e+07   39 1707 1.2252e+07 1.0432e+07  14.9% 10227 60513s
  3322  3174 1.0520e+07   40 1714 1.2252e+07 1.0432e+07  14.9% 10285 61548s
  3342  3180 1.0526e+07   43 1714 1.2252e+07 1.0432e+07  14.9% 10379 62444s
  3355  3189 1.0526e+07   44 1712 1.2252e+07 1.0432e+07  14.9% 10447 63466s
  3368  3197 1.0702e+07   47 1699 1.2252e+07 1.0432e+07  14.9% 10557 64272s
  3381  3215 1.0543e+07   49 1737 1.2252e+07 1.0432e+07  14.9% 10676 65044s
  3403  3220 1.0548e+07   51 1718 1.2252e+07 1.0432e+07  14.9% 10772 66223s
  3415  3230 1.0549e+07   52 1774 1.2252e+07 1.0432e+07  14.9% 10874 67347s
  3429  3257 1.0552e+07   53 1746 1.2252e+07 1.0432e+07  14.9% 11021 68738s
  3461  3263 1.0553e+07   55 1746 1.2252e+07 1.0432e+07  14.9% 11114 71207s
  3478  3280 1.0556e+07   56 1737 1.2252e+07 1.0432e+07  14.9% 11322 72321s
  3500  3293 1.0653e+07   59 1696 1.2252e+07 1.0432e+07  14.9% 11438 73374s
  3521  3308 1.0563e+07   62 1709 1.2252e+07 1.0432e+07  14.9% 11523 74679s
  3543  3317 1.0567e+07   64 1752 1.2252e+07 1.0432e+07  14.9% 11667 75741s
  3559  3336 1.0648e+07   65 1742 1.2252e+07 1.0432e+07  14.9% 11807 77128s
  3583  3352 1.0573e+07   68 1710 1.2252e+07 1.0432e+07  14.9% 11933 78458s
  3607  3364 1.0577e+07   71 1743 1.2252e+07 1.0432e+07  14.9% 12084 80151s
  3627  3378 1.0580e+07   73 1728 1.2252e+07 1.0432e+07  14.9% 12256 82403s
  3648  3395 1.0649e+07   75 1676 1.2252e+07 1.0432e+07  14.9% 12478 83767s
  3672  3412 1.0583e+07   78 1742 1.2252e+07 1.0432e+07  14.9% 12655 84693s

Cutting planes:
  Gomory: 2
  Cover: 2
  Implied bound: 459
  Projected implied bound: 44
  MIR: 558
  StrongCG: 4
  Flow cover: 3576
  GUB cover: 2
  Zero half: 1
  RLT: 557
  Relax-and-lift: 746

Explored 3697 nodes (49280139 simplex iterations) in 84693.79 seconds (81502.08 work units)
Thread count was 4 (of 128 available processors)

Solution count 4: 1.22517e+07 1.22547e+07 1.22654e+07 1.22684e+07 

Time limit reached
Best objective 1.225165800000e+07, best bound 1.043210894324e+07, gap 14.8515%

Solving took 	23:31:33.789
####################################################################################################
####################################################################################################
####################################################################################################
Reached timelimit, but could find a feasible solution
####################################################################################################
Description                          Value
----------------------------  ------------
Objective (min)               12,251,658.0
Cost sailing                   5,167,744.0
Cost port visits               6,070,032.0
Cost transshipment (demands)     226,627.0
Cost transshipment (empties)      99,267.0
Penalty delayed demands          667,791.0
Revenue Empties                1,515,453.0
Penalty rejected demands       1,535,650.0
Rejected demands (%)                  5.07
Omitted ports (%)                    34.16
Gap (%)                              14.85
####################################################################################################
Export solution
####################################################################################################
Overall time 	23:31:36.291

real	1411m38.169s
user	3577m34.246s
sys	0m29.584s
finished at Sat Mar 18 11:50:28 CET 2023
